XSym
0024
65cdecc15ca397dc40228413f1d6562c
Versions/Current/ClanLib
                                                                                                                                                                                                                                                                                                                                                                                                                                                                                                                                                                                                                                                                                                                                                                                                                                                                                                                                                                                                                                       